c 
c G(k,n,p) graph
c graph gen seed     : 31689423
c number of vertices : 80
c max number of edges: 1600
c number of classes  : 2
c edge density       : 0.400000
c edge probability   : 0.800000
c data structure     : dense
c
c           Graph Stats
c number of vertices  : 80
c nonisolated vertices: 80
c number of edges     : 1248
c edge density        : 0.394937
c max degree          : 39
c avg degree          : 31.20
c min degree          : 24
p col 80 1248
e 1 7
e 1 8
e 1 9
e 1 22
e 1 28
e 1 31
e 1 33
e 1 34
e 1 36
e 1 37
e 1 39
e 1 44
e 1 45
e 1 52
e 1 57
e 1 61
e 1 62
e 1 63
e 1 66
e 1 68
e 1 71
e 1 73
e 1 78
e 2 3
e 2 4
e 2 5
e 2 6
e 2 13
e 2 14
e 2 15
e 2 18
e 2 19
e 2 20
e 2 23
e 2 24
e 2 25
e 2 27
e 2 29
e 2 30
e 2 32
e 2 35
e 2 48
e 2 50
e 2 51
e 2 53
e 2 55
e 2 59
e 2 65
e 2 67
e 2 69
e 2 72
e 2 74
e 2 75
e 2 76
e 2 77
e 2 80
e 3 7
e 3 8
e 3 9
e 3 16
e 3 17
e 3 21
e 3 22
e 3 26
e 3 28
e 3 31
e 3 33
e 3 34
e 3 36
e 3 38
e 3 40
e 3 44
e 3 45
e 3 52
e 3 54
e 3 57
e 3 58
e 3 60
e 3 61
e 3 62
e 3 64
e 3 68
e 3 70
e 3 71
e 3 78
e 4 9
e 4 12
e 4 16
e 4 17
e 4 21
e 4 26
e 4 28
e 4 31
e 4 33
e 4 34
e 4 36
e 4 37
e 4 38
e 4 39
e 4 40
e 4 44
e 4 52
e 4 54
e 4 56
e 4 57
e 4 58
e 4 62
e 4 63
e 4 64
e 4 66
e 4 68
e 4 70
e 4 71
e 4 73
e 4 78
e 5 7
e 5 8
e 5 9
e 5 12
e 5 16
e 5 17
e 5 21
e 5 26
e 5 28
e 5 31
e 5 33
e 5 34
e 5 36
e 5 38
e 5 39
e 5 40
e 5 44
e 5 45
e 5 54
e 5 56
e 5 57
e 5 58
e 5 60
e 5 61
e 5 62
e 5 66
e 5 68
e 5 70
e 5 71
e 5 73
e 5 78
e 6 7
e 6 8
e 6 9
e 6 12
e 6 16
e 6 17
e 6 22
e 6 26
e 6 28
e 6 31
e 6 33
e 6 34
e 6 38
e 6 39
e 6 40
e 6 52
e 6 54
e 6 56
e 6 57
e 6 58
e 6 60
e 6 61
e 6 62
e 6 64
e 6 66
e 6 68
e 6 70
e 6 73
e 7 10
e 7 11
e 7 13
e 7 14
e 7 15
e 7 18
e 7 23
e 7 24
e 7 25
e 7 27
e 7 29
e 7 30
e 7 32
e 7 41
e 7 42
e 7 43
e 7 46
e 7 47
e 7 48
e 7 51
e 7 53
e 7 55
e 7 59
e 7 65
e 7 69
e 7 72
e 7 74
e 7 77
e 7 79
e 7 80
e 8 11
e 8 14
e 8 15
e 8 18
e 8 19
e 8 20
e 8 25
e 8 27
e 8 29
e 8 30
e 8 32
e 8 35
e 8 41
e 8 43
e 8 47
e 8 49
e 8 50
e 8 51
e 8 53
e 8 59
e 8 67
e 8 69
e 8 75
e 8 76
e 8 77
e 8 79
e 9 10
e 9 11
e 9 13
e 9 14
e 9 15
e 9 18
e 9 23
e 9 24
e 9 27
e 9 29
e 9 30
e 9 32
e 9 35
e 9 41
e 9 42
e 9 43
e 9 47
e 9 48
e 9 49
e 9 50
e 9 53
e 9 55
e 9 59
e 9 65
e 9 67
e 9 69
e 9 72
e 9 74
e 9 76
e 9 77
e 9 79
e 9 80
e 10 12
e 10 17
e 10 21
e 10 28
e 10 31
e 10 34
e 10 36
e 10 37
e 10 38
e 10 39
e 10 44
e 10 45
e 10 52
e 10 54
e 10 57
e 10 58
e 10 60
e 10 61
e 10 62
e 10 63
e 10 64
e 10 66
e 10 68
e 10 70
e 10 71
e 10 78
e 11 12
e 11 16
e 11 17
e 11 22
e 11 26
e 11 28
e 11 33
e 11 34
e 11 36
e 11 38
e 11 39
e 11 44
e 11 45
e 11 54
e 11 56
e 11 57
e 11 58
e 11 60
e 11 61
e 11 63
e 11 64
e 11 66
e 11 68
e 11 70
e 11 71
e 11 73
e 12 13
e 12 14
e 12 15
e 12 18
e 12 19
e 12 20
e 12 23
e 12 24
e 12 27
e 12 29
e 12 30
e 12 32
e 12 35
e 12 41
e 12 42
e 12 43
e 12 46
e 12 47
e 12 48
e 12 49
e 12 51
e 12 53
e 12 59
e 12 67
e 12 72
e 12 74
e 12 77
e 12 79
e 12 80
e 13 16
e 13 17
e 13 21
e 13 22
e 13 26
e 13 28
e 13 31
e 13 33
e 13 34
e 13 37
e 13 39
e 13 44
e 13 45
e 13 52
e 13 54
e 13 56
e 13 58
e 13 61
e 13 62
e 13 63
e 13 68
e 13 70
e 13 78
e 14 16
e 14 17
e 14 21
e 14 26
e 14 28
e 14 33
e 14 34
e 14 37
e 14 38
e 14 39
e 14 40
e 14 44
e 14 45
e 14 52
e 14 56
e 14 58
e 14 60
e 14 61
e 14 62
e 14 63
e 14 64
e 14 66
e 14 68
e 14 70
e 14 71
e 14 73
e 14 78
e 15 16
e 15 17
e 15 21
e 15 22
e 15 26
e 15 31
e 15 33
e 15 37
e 15 38
e 15 39
e 15 40
e 15 44
e 15 45
e 15 52
e 15 56
e 15 57
e 15 58
e 15 60
e 15 61
e 15 62
e 15 68
e 15 70
e 15 71
e 15 73
e 15 78
e 16 18
e 16 19
e 16 20
e 16 23
e 16 24
e 16 25
e 16 29
e 16 30
e 16 32
e 16 35
e 16 43
e 16 46
e 16 47
e 16 48
e 16 50
e 16 53
e 16 55
e 16 59
e 16 65
e 16 67
e 16 69
e 16 72
e 16 74
e 16 75
e 16 77
e 16 79
e 16 80
e 17 18
e 17 19
e 17 20
e 17 24
e 17 25
e 17 27
e 17 29
e 17 30
e 17 35
e 17 42
e 17 43
e 17 46
e 17 47
e 17 48
e 17 49
e 17 50
e 17 55
e 17 59
e 17 65
e 17 67
e 17 69
e 17 74
e 17 75
e 17 76
e 17 77
e 17 79
e 17 80
e 18 26
e 18 31
e 18 34
e 18 36
e 18 37
e 18 40
e 18 44
e 18 45
e 18 56
e 18 57
e 18 58
e 18 61
e 18 64
e 18 66
e 18 68
e 18 71
e 18 73
e 18 78
e 19 22
e 19 26
e 19 28
e 19 33
e 19 34
e 19 37
e 19 38
e 19 39
e 19 40
e 19 44
e 19 45
e 19 54
e 19 56
e 19 57
e 19 58
e 19 60
e 19 61
e 19 62
e 19 63
e 19 66
e 19 73
e 19 78
e 20 22
e 20 26
e 20 28
e 20 31
e 20 33
e 20 36
e 20 37
e 20 38
e 20 39
e 20 40
e 20 44
e 20 45
e 20 52
e 20 54
e 20 57
e 20 60
e 20 61
e 20 62
e 20 63
e 20 66
e 20 68
e 20 73
e 20 78
e 21 24
e 21 25
e 21 27
e 21 30
e 21 32
e 21 35
e 21 41
e 21 42
e 21 43
e 21 46
e 21 47
e 21 48
e 21 49
e 21 65
e 21 69
e 21 74
e 21 75
e 21 76
e 21 77
e 21 80
e 22 24
e 22 25
e 22 27
e 22 32
e 22 41
e 22 42
e 22 43
e 22 46
e 22 48
e 22 50
e 22 53
e 22 55
e 22 59
e 22 65
e 22 67
e 22 69
e 22 75
e 22 76
e 22 77
e 22 79
e 22 80
e 23 26
e 23 28
e 23 31
e 23 33
e 23 34
e 23 36
e 23 38
e 23 44
e 23 45
e 23 52
e 23 54
e 23 56
e 23 58
e 23 60
e 23 63
e 23 66
e 23 68
e 23 73
e 23 78
e 24 26
e 24 28
e 24 31
e 24 33
e 24 36
e 24 37
e 24 38
e 24 39
e 24 40
e 24 44
e 24 52
e 24 54
e 24 56
e 24 58
e 24 61
e 24 62
e 24 63
e 24 64
e 24 66
e 24 68
e 24 70
e 24 71
e 24 73
e 25 26
e 25 28
e 25 33
e 25 34
e 25 36
e 25 37
e 25 38
e 25 39
e 25 40
e 25 44
e 25 45
e 25 52
e 25 57
e 25 58
e 25 60
e 25 61
e 25 62
e 25 63
e 25 64
e 25 66
e 25 70
e 25 71
e 25 73
e 26 27
e 26 29
e 26 30
e 26 32
e 26 35
e 26 41
e 26 42
e 26 43
e 26 46
e 26 47
e 26 48
e 26 49
e 26 50
e 26 51
e 26 53
e 26 65
e 26 67
e 26 69
e 26 72
e 26 74
e 26 75
e 26 77
e 26 79
e 26 80
e 27 28
e 27 31
e 27 33
e 27 34
e 27 38
e 27 39
e 27 40
e 27 44
e 27 45
e 27 52
e 27 54
e 27 56
e 27 57
e 27 58
e 27 60
e 27 61
e 27 62
e 27 63
e 27 64
e 27 68
e 27 70
e 27 71
e 27 73
e 27 78
e 28 29
e 28 30
e 28 32
e 28 35
e 28 41
e 28 42
e 28 46
e 28 47
e 28 48
e 28 49
e 28 50
e 28 53
e 28 55
e 28 59
e 28 65
e 28 69
e 28 72
e 28 74
e 28 76
e 28 77
e 28 79
e 28 80
e 29 33
e 29 34
e 29 36
e 29 37
e 29 38
e 29 39
e 29 40
e 29 44
e 29 52
e 29 54
e 29 56
e 29 60
e 29 61
e 29 62
e 29 63
e 29 64
e 29 66
e 29 68
e 29 70
e 29 71
e 29 73
e 29 78
e 30 31
e 30 33
e 30 34
e 30 37
e 30 38
e 30 39
e 30 40
e 30 44
e 30 45
e 30 52
e 30 54
e 30 56
e 30 57
e 30 58
e 30 61
e 30 62
e 30 63
e 30 64
e 30 66
e 30 68
e 30 70
e 30 71
e 30 73
e 30 78
e 31 35
e 31 42
e 31 43
e 31 46
e 31 47
e 31 48
e 31 49
e 31 50
e 31 51
e 31 53
e 31 59
e 31 65
e 31 67
e 31 69
e 31 74
e 31 75
e 31 77
e 31 80
e 32 33
e 32 34
e 32 36
e 32 37
e 32 39
e 32 40
e 32 44
e 32 45
e 32 52
e 32 54
e 32 56
e 32 57
e 32 60
e 32 61
e 32 62
e 32 64
e 32 66
e 32 68
e 32 70
e 32 71
e 32 73
e 32 78
e 33 41
e 33 42
e 33 43
e 33 46
e 33 47
e 33 48
e 33 49
e 33 50
e 33 51
e 33 53
e 33 55
e 33 59
e 33 67
e 33 69
e 33 72
e 33 74
e 33 75
e 33 76
e 33 77
e 33 79
e 33 80
e 34 35
e 34 42
e 34 43
e 34 46
e 34 48
e 34 50
e 34 51
e 34 53
e 34 55
e 34 59
e 34 67
e 34 69
e 34 74
e 34 75
e 34 76
e 34 77
e 34 79
e 34 80
e 35 36
e 35 37
e 35 38
e 35 40
e 35 44
e 35 52
e 35 54
e 35 58
e 35 60
e 35 61
e 35 63
e 35 64
e 35 66
e 35 68
e 35 70
e 35 71
e 35 73
e 35 78
e 36 42
e 36 43
e 36 47
e 36 49
e 36 50
e 36 51
e 36 53
e 36 55
e 36 59
e 36 65
e 36 67
e 36 72
e 36 74
e 36 75
e 36 76
e 36 77
e 36 79
e 37 41
e 37 43
e 37 46
e 37 48
e 37 49
e 37 50
e 37 51
e 37 53
e 37 55
e 37 59
e 37 67
e 37 69
e 37 74
e 37 75
e 37 76
e 37 77
e 37 79
e 37 80
e 38 41
e 38 42
e 38 43
e 38 46
e 38 48
e 38 50
e 38 51
e 38 53
e 38 55
e 38 59
e 38 65
e 38 67
e 38 72
e 38 74
e 38 76
e 38 79
e 38 80
e 39 42
e 39 43
e 39 46
e 39 47
e 39 48
e 39 49
e 39 51
e 39 53
e 39 55
e 39 59
e 39 67
e 39 72
e 39 74
e 39 77
e 39 79
e 40 41
e 40 42
e 40 43
e 40 46
e 40 47
e 40 48
e 40 49
e 40 50
e 40 51
e 40 53
e 40 55
e 40 65
e 40 67
e 40 69
e 40 76
e 40 77
e 40 79
e 40 80
e 41 44
e 41 45
e 41 52
e 41 54
e 41 57
e 41 58
e 41 61
e 41 62
e 41 64
e 41 66
e 41 68
e 41 70
e 41 71
e 41 73
e 41 78
e 42 44
e 42 45
e 42 52
e 42 56
e 42 57
e 42 60
e 42 61
e 42 62
e 42 63
e 42 64
e 42 68
e 42 70
e 42 71
e 42 73
e 43 44
e 43 45
e 43 54
e 43 56
e 43 57
e 43 58
e 43 60
e 43 61
e 43 62
e 43 63
e 43 64
e 43 66
e 43 68
e 43 70
e 43 71
e 43 73
e 43 78
e 44 46
e 44 47
e 44 50
e 44 51
e 44 53
e 44 55
e 44 59
e 44 65
e 44 67
e 44 72
e 44 74
e 44 75
e 44 77
e 45 47
e 45 48
e 45 49
e 45 50
e 45 51
e 45 53
e 45 65
e 45 67
e 45 69
e 45 72
e 45 74
e 45 75
e 45 76
e 45 77
e 45 79
e 45 80
e 46 52
e 46 56
e 46 57
e 46 58
e 46 60
e 46 61
e 46 68
e 46 70
e 46 71
e 46 73
e 46 78
e 47 52
e 47 54
e 47 56
e 47 57
e 47 58
e 47 60
e 47 62
e 47 63
e 47 64
e 47 66
e 47 68
e 47 70
e 47 71
e 47 73
e 48 52
e 48 54
e 48 56
e 48 57
e 48 61
e 48 63
e 48 64
e 48 66
e 48 68
e 48 70
e 48 73
e 48 78
e 49 52
e 49 54
e 49 56
e 49 57
e 49 58
e 49 61
e 49 62
e 49 63
e 49 64
e 49 66
e 49 70
e 49 73
e 49 78
e 50 52
e 50 54
e 50 56
e 50 57
e 50 61
e 50 62
e 50 63
e 50 64
e 50 66
e 50 68
e 50 71
e 50 78
e 51 54
e 51 56
e 51 57
e 51 58
e 51 60
e 51 61
e 51 62
e 51 63
e 51 64
e 51 66
e 51 68
e 51 70
e 51 71
e 52 53
e 52 55
e 52 59
e 52 65
e 52 67
e 52 69
e 52 74
e 52 76
e 52 77
e 52 79
e 53 54
e 53 56
e 53 57
e 53 60
e 53 62
e 53 64
e 53 66
e 53 68
e 53 70
e 53 71
e 53 73
e 54 55
e 54 65
e 54 69
e 54 72
e 54 74
e 54 75
e 54 76
e 54 77
e 54 79
e 54 80
e 55 56
e 55 57
e 55 58
e 55 61
e 55 62
e 55 64
e 55 66
e 55 68
e 55 70
e 55 71
e 55 73
e 56 59
e 56 67
e 56 69
e 56 72
e 56 74
e 56 75
e 56 77
e 56 79
e 56 80
e 57 59
e 57 65
e 57 67
e 57 72
e 57 74
e 57 76
e 57 77
e 57 79
e 57 80
e 58 59
e 58 65
e 58 67
e 58 69
e 58 72
e 58 75
e 58 76
e 58 77
e 58 79
e 58 80
e 59 60
e 59 62
e 59 63
e 59 64
e 59 68
e 59 70
e 59 71
e 59 73
e 59 78
e 60 69
e 60 74
e 60 75
e 60 79
e 60 80
e 61 65
e 61 67
e 61 69
e 61 72
e 61 74
e 61 75
e 61 76
e 61 77
e 61 80
e 62 65
e 62 67
e 62 69
e 62 72
e 62 75
e 62 77
e 62 80
e 63 65
e 63 67
e 63 69
e 63 72
e 63 74
e 63 76
e 63 77
e 63 80
e 64 65
e 64 72
e 64 74
e 64 75
e 64 76
e 64 79
e 64 80
e 65 68
e 65 70
e 65 71
e 66 72
e 66 75
e 66 76
e 66 77
e 66 79
e 66 80
e 67 68
e 67 70
e 67 71
e 67 78
e 68 69
e 68 72
e 68 75
e 68 76
e 68 77
e 68 79
e 68 80
e 69 70
e 69 73
e 69 78
e 70 72
e 70 74
e 70 75
e 70 76
e 70 77
e 71 72
e 71 75
e 71 76
e 71 80
e 72 73
e 72 78
e 73 74
e 73 75
e 73 76
e 73 77
e 73 79
e 73 80
e 74 78
e 76 78
e 77 78
e 78 80
